p cnf 40 196
-3 -5 -7 28 0
-3 -5 7 -28 0
-3 5 -7 -28 0
-3 5 7 28 0
3 -5 -7 -28 0
3 -5 7 28 0
3 5 -7 28 0
3 5 7 -28 0
9 13 28 0
-9 13 28 0
9 -13 28 0
9 13 -28 0
-1 -3 -5 29 0
-1 -3 5 -29 0
-1 3 -5 -29 0
-1 3 5 29 0
1 -3 -5 -29 0
1 -3 5 29 0
1 3 -5 29 0
1 3 5 -29 0
-6 -7 -29 30 0
-6 -7 29 -30 0
-6 7 -29 -30 0
-6 7 29 30 0
6 -7 -29 -30 0
6 -7 29 30 0
6 7 -29 30 0
6 7 29 -30 0
-8 -9 -14 30 0
-8 -9 14 -30 0
-8 9 -14 -30 0
-8 9 14 30 0
8 -9 -14 -30 0
8 -9 14 30 0
8 9 -14 30 0
8 9 14 -30 0
-2 -4 -6 31 0
-2 -4 6 -31 0
-2 4 -6 -31 0
-2 4 6 31 0
2 -4 -6 -31 0
2 -4 6 31 0
2 4 -6 31 0
2 4 6 -31 0
-8 -9 -15 31 0
-8 -9 15 -31 0
-8 9 -15 -31 0
-8 9 15 31 0
8 -9 -15 -31 0
8 -9 15 31 0
8 9 -15 31 0
8 9 15 -31 0
-1 -2 -3 32 0
-1 -2 3 -32 0
-1 2 -3 -32 0
-1 2 3 32 0
1 -2 -3 -32 0
1 -2 3 32 0
1 2 -3 32 0
1 2 3 -32 0
-4 -5 -32 33 0
-4 -5 32 -33 0
-4 5 -32 -33 0
-4 5 32 33 0
4 -5 -32 -33 0
4 -5 32 33 0
4 5 -32 33 0
4 5 32 -33 0
6 16 33 0
-6 16 33 0
6 -16 33 0
6 16 -33 0
1 4 17 0
-1 4 17 0
1 -4 17 0
1 4 -17 0
-1 -2 -4 34 0
-1 -2 4 -34 0
-1 2 -4 -34 0
-1 2 4 34 0
1 -2 -4 -34 0
1 -2 4 34 0
1 2 -4 34 0
1 2 4 -34 0
5 18 34 0
-5 18 34 0
5 -18 34 0
5 18 -34 0
-1 -5 -6 35 0
-1 -5 6 -35 0
-1 5 -6 -35 0
-1 5 6 35 0
1 -5 -6 -35 0
1 -5 6 35 0
1 5 -6 35 0
1 5 6 -35 0
7 19 35 0
-7 19 35 0
7 -19 35 0
7 19 -35 0
-2 -4 -5 36 0
-2 -4 5 -36 0
-2 4 -5 -36 0
-2 4 5 36 0
2 -4 -5 -36 0
2 -4 5 36 0
2 4 -5 36 0
2 4 5 -36 0
8 20 36 0
-8 20 36 0
8 -20 36 0
8 20 -36 0
-3 -4 -5 37 0
-3 -4 5 -37 0
-3 4 -5 -37 0
-3 4 5 37 0
3 -4 -5 -37 0
3 -4 5 37 0
3 4 -5 37 0
3 4 5 -37 0
-6 -9 -21 37 0
-6 -9 21 -37 0
-6 9 -21 -37 0
-6 9 21 37 0
6 -9 -21 -37 0
6 -9 21 37 0
6 9 -21 37 0
6 9 21 -37 0
-1 -5 -6 38 0
-1 -5 6 -38 0
-1 5 -6 -38 0
-1 5 6 38 0
1 -5 -6 -38 0
1 -5 6 38 0
1 5 -6 38 0
1 5 6 -38 0
9 22 38 0
-9 22 38 0
9 -22 38 0
9 22 -38 0
-2 -4 -5 39 0
-2 -4 5 -39 0
-2 4 -5 -39 0
-2 4 5 39 0
2 -4 -5 -39 0
2 -4 5 39 0
2 4 -5 39 0
2 4 5 -39 0
-7 -9 -23 39 0
-7 -9 23 -39 0
-7 9 -23 -39 0
-7 9 23 39 0
7 -9 -23 -39 0
7 -9 23 39 0
7 9 -23 39 0
7 9 23 -39 0
-3 -4 -5 40 0
-3 -4 5 -40 0
-3 4 -5 -40 0
-3 4 5 40 0
3 -4 -5 -40 0
3 -4 5 40 0
3 4 -5 40 0
3 4 5 -40 0
-6 -8 -24 40 0
-6 -8 24 -40 0
-6 8 -24 -40 0
-6 8 24 40 0
6 -8 -24 -40 0
6 -8 24 40 0
6 8 -24 40 0
6 8 24 -40 0
1 2 5 25 0
-1 -2 -5 -25 0
-1 -2 5 25 0
-1 2 -5 25 0
-1 2 5 -25 0
1 -2 -5 25 0
1 -2 5 -25 0
1 2 -5 -25 0
-3 -5 -6 26 0
-3 -5 6 -26 0
-3 5 -6 -26 0
-3 5 6 26 0
3 -5 -6 -26 0
3 -5 6 26 0
3 5 -6 26 0
3 5 6 -26 0
-1 -4 -6 27 0
-1 -4 6 -27 0
-1 4 -6 -27 0
-1 4 6 27 0
1 -4 -6 -27 0
1 -4 6 27 0
1 4 -6 27 0
1 4 6 -27 0
